p cnf 130 160
1 32 34 51 0
1 32 34 -51 0
4 5 32 52 0
4 5 32 -52 0
-4 5 -34 53 0
-4 5 -34 -53 0
-5 32 -34 54 0
-5 32 -34 -54 0
29 -32 43 55 0
29 -32 43 -55 0
29 36 -43 56 0
29 36 -43 -56 0
29 -32 -36 57 0
29 -32 -36 -57 0
1 3 -29 58 0
1 3 -29 -58 0
-3 -29 -32 59 0
-3 -29 -32 -59 0
-1 24 39 60 0
-1 24 39 -60 0
-1 24 -39 61 0
-1 24 -39 -61 0
7 18 -24 62 0
7 18 -24 -62 0
-7 18 28 63 0
-7 18 28 -63 0
-7 -21 28 64 0
-7 -21 28 -64 0
-7 17 -28 65 0
-7 17 -28 -65 0
18 -24 -28 66 0
18 -24 -28 -66 0
2 17 40 67 0
2 17 40 -67 0
-17 -18 40 68 0
-17 -18 40 -68 0
2 39 -40 69 0
2 39 -40 -69 0
2 -39 -40 70 0
2 -39 -40 -70 0
-2 -18 35 71 0
-2 -18 35 -71 0
-2 -18 -35 72 0
-2 -18 -35 -72 0
9 -32 41 73 0
9 -32 41 -73 0
-9 41 45 74 0
-9 41 45 -74 0
-1 -9 -45 75 0
-1 -9 -45 -75 0
-5 27 43 76 0
-5 27 43 -76 0
14 16 26 77 0
14 16 26 -77 0
14 -16 49 78 0
14 -16 49 -78 0
12 -14 26 79 0
12 -14 26 -79 0
-12 26 35 80 0
-12 26 35 -80 0
26 30 -35 81 0
26 30 -35 -81 0
-26 30 49 82 0
-26 30 49 -82 0
9 13 25 83 0
9 13 25 -83 0
5 -17 25 84 0
5 -17 25 -84 0
15 30 47 85 0
15 30 47 -85 0
-20 27 -49 86 0
-20 27 -49 -86 0
13 -20 -27 87 0
13 -20 -27 -87 0
-13 -30 -49 88 0
-13 -30 -49 -88 0
3 8 37 89 0
3 8 37 -89 0
8 23 -43 90 0
8 23 -43 -90 0
10 19 22 91 0
10 19 22 -91 0
10 -19 22 92 0
10 -19 22 -92 0
-10 -19 36 93 0
-10 -19 36 -93 0
4 21 38 94 0
4 21 38 -94 0
-4 38 46 95 0
-4 38 46 -95 0
21 -38 -47 96 0
21 -38 -47 -96 0
-21 45 46 97 0
-21 45 46 -97 0
-14 -33 -38 98 0
-14 -33 -38 -98 0
-10 11 -26 99 0
-10 11 -26 -99 0
-14 16 -50 100 0
-14 16 -50 -100 0
-14 -16 -23 101 0
-14 -16 -23 -101 0
-2 -23 -50 102 0
-2 -23 -50 -102 0
12 -47 50 103 0
12 -47 50 -103 0
7 10 48 104 0
7 10 48 -104 0
-6 -13 -41 105 0
-6 -13 -41 -105 0
11 -41 -48 106 0
11 -41 -48 -106 0
23 -41 -48 107 0
23 -41 -48 -107 0
-15 42 48 108 0
-15 42 48 -108 0
-15 -21 -42 109 0
-15 -21 -42 -109 0
11 34 44 110 0
11 34 44 -110 0
-27 -34 -46 111 0
-27 -34 -46 -111 0
19 28 50 112 0
19 28 50 -112 0
-3 6 -35 113 0
-3 6 -35 -113 0
-22 -40 -44 114 0
-22 -40 -44 -114 0
-25 -37 -42 115 0
-25 -37 -42 -115 0
-26 -30 -37 116 0
-26 -30 -37 -116 0
6 -31 42 117 0
6 -31 42 -117 0
6 -31 -33 118 0
6 -31 -33 -118 0
-44 -45 47 119 0
-44 -45 47 -119 0
4 20 47 120 0
4 20 47 -120 0
-6 44 -46 121 0
-6 44 -46 -121 0
-11 12 20 122 0
-11 12 20 -122 0
-8 10 28 123 0
-8 10 28 -123 0
-22 31 -36 124 0
-22 31 -36 -124 0
7 -25 37 125 0
7 -25 37 -125 0
-11 31 47 126 0
-11 31 47 -126 0
-4 10 -12 127 0
-4 10 -12 -127 0
-30 -31 44 128 0
-30 -31 44 -128 0
7 15 33 129 0
7 15 33 -129 0
-8 -11 33 130 0
-8 -11 33 -130 0

